freqeunceWCSP 6 728 19 1000000000000
728 728 728
2 0 1 -1 disj 0 0 20
2 0 4 -1 disj 0 0 20
2 3 1 -1 disj 0 0 20
2 3 4 -1 disj 0 0 20
2 0 2 -1 disj 0 0 30
2 0 5 -1 disj 0 0 30
2 3 2 -1 disj 0 0 30
2 3 5 -1 disj 0 0 30
2 4 2 0 -1 = 0 0
2 1 5 0 -1 = 0 0
2 0 3 0 -1 = 140 0
2 1 4 0 -1 = 140 0
2 2 5 0 -1 = 140 0
1 0 1000000000000 14
14 0
28 0
42 0
56 0
70 0
84 0
98 0
112 0
126 0
140 0
154 0
168 0
182 0
196 0
1 3 1000000000000 10
14 0
28 0
42 0
56 0
70 0
126 0
140 0
154 0
182 0
196 0
1 1 1000000000000 14
14 0
28 0
42 0
56 0
70 0
84 0
98 0
112 0
126 0
140 0
154 0
168 0
182 0
196 0
1 4 1000000000000 11
14 0
28 0
42 0
56 0
70 0
98 0
140 0
154 0
168 0
182 0
196 0
1 2 1000000000000 13
14 0
28 0
42 0
56 0
70 0
84 0
98 0
112 0
126 0
140 0
154 0
168 0
196 0
1 5 1000000000000 14
14 0
28 0
42 0
56 0
70 0
84 0
98 0
112 0
126 0
140 0
154 0
168 0
182 0
196 0
